c colouring generated by benchmark framework
p edge 500 112437
v 1 55
v 2 70
v 3 35
v 4 153
v 5 154
v 6 80
v 7 131
v 8 85
v 9 38
v 10 19
v 11 89
v 12 24
v 13 69
v 14 115
v 15 66
v 16 76
v 17 72
v 18 53
v 19 57
v 20 33
v 21 115
v 22 13
v 23 64
v 24 2
v 25 104
v 26 109
v 27 142
v 28 41
v 29 99
v 30 21
v 31 120
v 32 122
v 33 145
v 34 76
v 35 9
v 36 3
v 37 17
v 38 89
v 39 153
v 40 0
v 41 82
v 42 32
v 43 23
v 44 124
v 45 125
v 46 14
v 47 144
v 48 10
v 49 5
v 50 75
v 51 34
v 52 96
v 53 149
v 54 113
v 55 15
v 56 45
v 57 139
v 58 143
v 59 127
v 60 97
v 61 85
v 62 148
v 63 103
v 64 107
v 65 43
v 66 110
v 67 25
v 68 141
v 69 59
v 70 107
v 71 78
v 72 105
v 73 155
v 74 4
v 75 107
v 76 28
v 77 101
v 78 56
v 79 60
v 80 1
v 81 121
v 82 25
v 83 93
v 84 157
v 85 111
v 86 76
v 87 19
v 88 45
v 89 14
v 90 134
v 91 151
v 92 47
v 93 53
v 94 39
v 95 42
v 96 49
v 97 79
v 98 26
v 99 87
v 100 20
v 101 145
v 102 7
v 103 87
v 104 79
v 105 106
v 106 76
v 107 95
v 108 131
v 109 16
v 110 137
v 111 87
v 112 94
v 113 141
v 114 52
v 115 73
v 116 79
v 117 64
v 118 60
v 119 118
v 120 46
v 121 12
v 122 93
v 123 57
v 124 132
v 125 156
v 126 113
v 127 43
v 128 65
v 129 96
v 130 132
v 131 157
v 132 48
v 133 31
v 134 47
v 135 124
v 136 119
v 137 111
v 138 20
v 139 112
v 140 127
v 141 151
v 142 114
v 143 68
v 144 140
v 145 50
v 146 116
v 147 143
v 148 152
v 149 92
v 150 123
v 151 162
v 152 16
v 153 10
v 154 115
v 155 77
v 156 26
v 157 55
v 158 66
v 159 39
v 160 32
v 161 143
v 162 74
v 163 89
v 164 15
v 165 88
v 166 40
v 167 88
v 168 108
v 169 26
v 170 59
v 171 53
v 172 59
v 173 49
v 174 84
v 175 92
v 176 74
v 177 2
v 178 41
v 179 108
v 180 27
v 181 84
v 182 78
v 183 130
v 184 108
v 185 106
v 186 141
v 187 110
v 188 2
v 189 58
v 190 137
v 191 70
v 192 77
v 193 15
v 194 153
v 195 140
v 196 38
v 197 72
v 198 147
v 199 46
v 200 10
v 201 29
v 202 80
v 203 23
v 204 5
v 205 86
v 206 8
v 207 60
v 208 40
v 209 58
v 210 86
v 211 91
v 212 58
v 213 91
v 214 97
v 215 0
v 216 37
v 217 1
v 218 152
v 219 150
v 220 128
v 221 27
v 222 70
v 223 73
v 224 61
v 225 21
v 226 22
v 227 94
v 228 44
v 229 6
v 230 93
v 231 5
v 232 110
v 233 135
v 234 153
v 235 28
v 236 11
v 237 84
v 238 50
v 239 1
v 240 114
v 241 20
v 242 135
v 243 146
v 244 136
v 245 118
v 246 130
v 247 119
v 248 144
v 249 126
v 250 122
v 251 37
v 252 83
v 253 109
v 254 149
v 255 62
v 256 87
v 257 158
v 258 102
v 259 38
v 260 85
v 261 154
v 262 121
v 263 17
v 264 47
v 265 12
v 266 11
v 267 69
v 268 23
v 269 88
v 270 81
v 271 71
v 272 40
v 273 81
v 274 98
v 275 160
v 276 130
v 277 138
v 278 134
v 279 46
v 280 155
v 281 162
v 282 116
v 283 36
v 284 33
v 285 54
v 286 28
v 287 131
v 288 30
v 289 69
v 290 29
v 291 77
v 292 118
v 293 158
v 294 48
v 295 123
v 296 52
v 297 128
v 298 54
v 299 27
v 300 41
v 301 67
v 302 25
v 303 51
v 304 22
v 305 126
v 306 156
v 307 97
v 308 127
v 309 6
v 310 80
v 311 41
v 312 138
v 313 99
v 314 4
v 315 108
v 316 7
v 317 83
v 318 148
v 319 105
v 320 16
v 321 65
v 322 92
v 323 25
v 324 39
v 325 67
v 326 68
v 327 18
v 328 35
v 329 43
v 330 36
v 331 79
v 332 121
v 333 100
v 334 3
v 335 30
v 336 81
v 337 124
v 338 114
v 339 102
v 340 148
v 341 113
v 342 82
v 343 24
v 344 94
v 345 101
v 346 100
v 347 142
v 348 61
v 349 63
v 350 42
v 351 64
v 352 129
v 353 18
v 354 133
v 355 139
v 356 119
v 357 73
v 358 81
v 359 31
v 360 81
v 361 12
v 362 51
v 363 45
v 364 94
v 365 33
v 366 125
v 367 105
v 368 54
v 369 146
v 370 75
v 371 9
v 372 146
v 373 123
v 374 56
v 375 117
v 376 120
v 377 13
v 378 120
v 379 3
v 380 44
v 381 117
v 382 147
v 383 9
v 384 150
v 385 19
v 386 50
v 387 136
v 388 23
v 389 44
v 390 61
v 391 8
v 392 129
v 393 99
v 394 55
v 395 161
v 396 78
v 397 65
v 398 57
v 399 140
v 400 98
v 401 42
v 402 149
v 403 49
v 404 82
v 405 133
v 406 104
v 407 128
v 408 67
v 409 129
v 410 16
v 411 159
v 412 117
v 413 18
v 414 75
v 415 142
v 416 35
v 417 129
v 418 126
v 419 151
v 420 0
v 421 39
v 422 156
v 423 106
v 424 72
v 425 122
v 426 102
v 427 95
v 428 104
v 429 110
v 430 95
v 431 71
v 432 136
v 433 36
v 434 112
v 435 134
v 436 63
v 437 152
v 438 31
v 439 52
v 440 13
v 441 21
v 442 83
v 443 6
v 444 32
v 445 116
v 446 104
v 447 90
v 448 71
v 449 17
v 450 68
v 451 86
v 452 159
v 453 95
v 454 111
v 455 56
v 456 36
v 457 51
v 458 139
v 459 135
v 460 62
v 461 91
v 462 96
v 463 30
v 464 145
v 465 77
v 466 160
v 467 84
v 468 125
v 469 161
v 470 112
v 471 158
v 472 4
v 473 22
v 474 147
v 475 29
v 476 44
v 477 155
v 478 63
v 479 98
v 480 90
v 481 28
v 482 34
v 483 24
v 484 148
v 485 74
v 486 32
v 487 49
v 488 37
v 489 113
v 490 137
v 491 142
v 492 66
v 493 34
v 494 62
v 495 109
v 496 11
v 497 103
v 498 100
v 499 14
v 500 17
